\ Model freshfood_newsvendor
\ LP format - for model browsing. Use MPS format to capture full model detail.
Maximize
  10 q[0] + 20 q[1] + 20 q[2] + 20 q[3] + 30 q[4] + 10 q[5] + 10 q[6]
   + 20 q[7] + 30 q[8] + 40 q[9] - 2.747345833310127 z[0,1]
   - 7.143099166606331 z[0,2] - 13.00410361100127 z[0,3]
   - 18.8651080553962 z[0,4] - 23.55391161091216 z[0,5]
   - 26.67978064792279 z[0,6] - 28.46599152621458 z[0,7]
   - 9.957413673572791 z[1,1] - 21.15950405634218 z[1,2]
   - 32.36159443911156 z[1,3] - 24.36035098259028 z[2,1]
   - 40.6005849709838 z[2,2] - 51.42740762991282 z[2,3]
   - 56.84081895937734 z[2,4] - 51.50312176400192 z[3,1]
   - 64.3789022050024 z[3,2] - 68.67082901866922 z[3,3]
   - 20.3002924854919 z[4,1] - 33.83382080915317 z[4,2]
   - 42.85617302492735 z[4,3] - 47.36734913281445 z[4,4]
   - 16.24023398839352 z[5,1] - 27.06705664732254 z[5,2]
   - 34.28493841994188 z[5,3] - 37.89387930625156 z[5,4]
   - 4.762066111070888 z[6,2] - 8.669402407334179 z[6,3]
   - 12.57673870359747 z[6,4] - 15.7026077406081 z[6,5]
   - 17.78652043194853 z[6,6] - 18.97732768414306 z[6,7]
   - 19.57273131024032 z[6,8] - 2.251188846115634 z[7,5]
   - 4.716862325587993 z[7,6] - 8.591492079044578 z[7,7]
   - 13.91910799004737 z[7,8] - 20.43063854793965 z[7,9]
   - 27.59332216162121 z[7,10] - 34.75600577530274 z[7,11]
   - 41.32179908784413 z[7,12] - 46.87747035230224 z[7,13]
   - 51.24264063151932 z[7,14] - 54.44376550294518 z[7,15]
   - 56.64453885205047 z[7,16] - 58.06856866617741 z[7,17]
   - 58.93880910814387 z[7,18] - 80 z[8,1] - 80 z[8,2]
   - 73.57588823428847 z[9,1] - 91.96986029286059 z[9,2]
   - 169.3634045364808 Constant
Subject To
 R0: q[0] >= 0
 R1: q[1] >= 0
 R2: q[2] >= 0
 R3: q[3] >= 0
 R4: q[4] >= 0
 R5: q[5] >= 0
 R6: q[6] >= 1
 R7: q[7] >= 4
 R8: q[8] >= 0
 R9: q[9] >= 0
 R10: q[0] <= 8
 R11: q[1] <= 4
 R12: q[2] <= 5
 R13: q[3] <= 4
 R14: q[4] <= 5
 R15: q[5] <= 5
 R16: q[6] <= 9
 R17: q[7] <= 19
 R18: q[8] <= 3
 R19: q[9] <= 3
 R20: q[0] + q[1] + q[2] + q[3] + q[4] + q[5] + q[6] + q[7] + q[8] + q[9]
   <= 65
 R21: q[0] - z[0,1] - z[0,2] - z[0,3] - z[0,4] - z[0,5] - z[0,6] - z[0,7]
   - z[0,8] = 0
 R22: q[1] - z[1,1] - z[1,2] - z[1,3] - z[1,4] = 0
 R23: q[2] - z[2,1] - z[2,2] - z[2,3] - z[2,4] - z[2,5] = 0
 R24: q[3] - z[3,1] - z[3,2] - z[3,3] - z[3,4] = 0
 R25: q[4] - z[4,1] - z[4,2] - z[4,3] - z[4,4] - z[4,5] = 0
 R26: q[5] - z[5,1] - z[5,2] - z[5,3] - z[5,4] - z[5,5] = 0
 R27: q[6] - z[6,2] - z[6,3] - z[6,4] - z[6,5] - z[6,6] - z[6,7] - z[6,8]
   - z[6,9] = 1
 R28: q[7] - z[7,5] - z[7,6] - z[7,7] - z[7,8] - z[7,9] - z[7,10] - z[7,11]
   - z[7,12] - z[7,13] - z[7,14] - z[7,15] - z[7,16] - z[7,17] - z[7,18]
   - z[7,19] = 4
 R29: q[8] - z[8,1] - z[8,2] - z[8,3] = 0
 R30: q[9] - z[9,1] - z[9,2] - z[9,3] = 0
 R31: z[0,1] - z[0,2] >= 0
 R32: z[0,2] - z[0,3] >= 0
 R33: z[0,3] - z[0,4] >= 0
 R34: z[0,4] - z[0,5] >= 0
 R35: z[0,5] - z[0,6] >= 0
 R36: z[0,6] - z[0,7] >= 0
 R37: z[0,7] - z[0,8] >= 0
 R38: z[1,1] - z[1,2] >= 0
 R39: z[1,2] - z[1,3] >= 0
 R40: z[1,3] - z[1,4] >= 0
 R41: z[2,1] - z[2,2] >= 0
 R42: z[2,2] - z[2,3] >= 0
 R43: z[2,3] - z[2,4] >= 0
 R44: z[2,4] - z[2,5] >= 0
 R45: z[3,1] - z[3,2] >= 0
 R46: z[3,2] - z[3,3] >= 0
 R47: z[3,3] - z[3,4] >= 0
 R48: z[4,1] - z[4,2] >= 0
 R49: z[4,2] - z[4,3] >= 0
 R50: z[4,3] - z[4,4] >= 0
 R51: z[4,4] - z[4,5] >= 0
 R52: z[5,1] - z[5,2] >= 0
 R53: z[5,2] - z[5,3] >= 0
 R54: z[5,3] - z[5,4] >= 0
 R55: z[5,4] - z[5,5] >= 0
 R56: z[6,2] - z[6,3] >= 0
 R57: z[6,3] - z[6,4] >= 0
 R58: z[6,4] - z[6,5] >= 0
 R59: z[6,5] - z[6,6] >= 0
 R60: z[6,6] - z[6,7] >= 0
 R61: z[6,7] - z[6,8] >= 0
 R62: z[6,8] - z[6,9] >= 0
 R63: z[7,5] - z[7,6] >= 0
 R64: z[7,6] - z[7,7] >= 0
 R65: z[7,7] - z[7,8] >= 0
 R66: z[7,8] - z[7,9] >= 0
 R67: z[7,9] - z[7,10] >= 0
 R68: z[7,10] - z[7,11] >= 0
 R69: z[7,11] - z[7,12] >= 0
 R70: z[7,12] - z[7,13] >= 0
 R71: z[7,13] - z[7,14] >= 0
 R72: z[7,14] - z[7,15] >= 0
 R73: z[7,15] - z[7,16] >= 0
 R74: z[7,16] - z[7,17] >= 0
 R75: z[7,17] - z[7,18] >= 0
 R76: z[7,18] - z[7,19] >= 0
 R77: z[8,1] - z[8,2] >= 0
 R78: z[8,2] - z[8,3] >= 0
 R79: z[9,1] - z[9,2] >= 0
 R80: z[9,2] - z[9,3] >= 0
Bounds
 Constant = 1
Binaries
 z[0,1] z[0,2] z[0,3] z[0,4] z[0,5] z[0,6] z[0,7] z[0,8] z[1,1] z[1,2]
 z[1,3] z[1,4] z[2,1] z[2,2] z[2,3] z[2,4] z[2,5] z[3,1] z[3,2] z[3,3]
 z[3,4] z[4,1] z[4,2] z[4,3] z[4,4] z[4,5] z[5,1] z[5,2] z[5,3] z[5,4]
 z[5,5] z[6,2] z[6,3] z[6,4] z[6,5] z[6,6] z[6,7] z[6,8] z[6,9] z[7,5]
 z[7,6] z[7,7] z[7,8] z[7,9] z[7,10] z[7,11] z[7,12] z[7,13] z[7,14]
 z[7,15] z[7,16] z[7,17] z[7,18] z[7,19] z[8,1] z[8,2] z[8,3] z[9,1] z[9,2]
 z[9,3]
Generals
 q[0] q[1] q[2] q[3] q[4] q[5] q[6] q[7] q[8] q[9]
End
